32	0

0	1	2
3	2	3	4
3	2	5	6
3	2	5	6
5	1	7
2	1	7
10	2	8	10
6	2	9	11
10	1	13
7	1	11
6	1	12
1	1	13
3	1	14
1	1	15
1	2	16	17
7	1	18
7	1	18
1	1	19
9	1	20
1	2	21	22
10	1	23
9	1	23
5	2	24	25
8	1	26
5	1	26
5	1	27
8	1	28
5	1	29
10	2	30	31
9	1	32
7	1	32
0	0
